NAME : 10_3_3_1_(03).dat
COMMENT : Henke, Speranza, Wäscher, 2015
TYPE : MCVRP
DIMENSION : 11
EDGE_WEIGHT_TYPE : DISTANCE_MATRIX
CAPACITY : 1000
VEHICLES : 3
PRODUCT TYPES : 3
COMPARTMENTS : 3
NODE_COORD_SECTION
1 50 50
2 68.63 11.05
3 41.69 35.75
4 54.54 20.87
5 17.57 89.52
6 65.59 63.52
7 60.12 69.05
8 60.01 77.45
9 66.01 61.31
10 88.37 50.9
11 71.48 41.72
DEMAND_SECTION
1 0 0 0
2 210 0 0
3 202 0 0
4 0 0 43
5 187 0 0
6 0 322 0
7 0 29 0
8 176 0 0
9 77 0 0
10 0 159 0
11 0 0 297
DEPOT_SECTION
1
EOF